
Gurobi 11.0.1 (win64) logging started Wed Mar 13 20:00:58 2024

Set parameter LogFile to value "C:\Projetos\Job_Rotation_Algorithms\Outputs\GurobiLogs\gurobi_log-output-47_ros-c10-CostaMirallesModel-NoExtraConstraint-2.log"
Gurobi Optimizer version 11.0.1 build v11.0.1rc0 (win64 - Windows 10.0 (19045.2))

CPU model: 11th Gen Intel(R) Core(TM) i7-1165G7 @ 2.80GHz, instruction set [SSE2|AVX|AVX2|AVX512]
Thread count: 4 physical cores, 8 logical processors, using up to 1 threads


Gurobi 11.0.1 (win64) logging started Thu Mar 14 07:59:16 2024

Set parameter LogFile to value "C:\Projetos\Job_Rotation_Algorithms\Outputs\GurobiLogs\gurobi_log-output-47_ros-c10-CostaMirallesModel-NoExtraConstraint-2.log"
Gurobi Optimizer version 11.0.1 build v11.0.1rc0 (win64 - Windows 10.0 (19045.2))

CPU model: 11th Gen Intel(R) Core(TM) i7-1165G7 @ 2.80GHz, instruction set [SSE2|AVX|AVX2|AVX512]
Thread count: 4 physical cores, 8 logical processors, using up to 1 threads


Gurobi 11.0.1 (win64) logging started Fri Mar 15 00:36:42 2024

Set parameter LogFile to value "C:\Projetos\Job_Rotation_Algorithms\Outputs\GurobiLogs\gurobi_log-output-47_ros-c10-CostaMirallesModel-NoExtraConstraint-2.log"
Gurobi Optimizer version 11.0.1 build v11.0.1rc0 (win64 - Windows 10.0 (19045.2))

CPU model: 11th Gen Intel(R) Core(TM) i7-1165G7 @ 2.80GHz, instruction set [SSE2|AVX|AVX2|AVX512]
Thread count: 4 physical cores, 8 logical processors, using up to 1 threads


Gurobi 11.0.1 (win64) logging started Fri Mar 15 14:49:59 2024

Set parameter LogFile to value "C:\Projetos\Job_Rotation_Algorithms\Outputs\GurobiLogs\gurobi_log-output-47_ros-c10-CostaMirallesModel-NoExtraConstraint-2.log"
Gurobi Optimizer version 11.0.1 build v11.0.1rc0 (win64 - Windows 10.0 (19045.2))

CPU model: 11th Gen Intel(R) Core(TM) i7-1165G7 @ 2.80GHz, instruction set [SSE2|AVX|AVX2|AVX512]
Thread count: 4 physical cores, 8 logical processors, using up to 1 threads

WLS license 901039 - registered to Bitka Analytics
Optimize a model with 682 rows, 1777 columns and 18361 nonzeros
Model fingerprint: 0xef67194f
Variable types: 2 continuous, 1775 integer (1775 binary)
Coefficient statistics:
  Matrix range     [1e+00, 3e+01]
  Objective range  [1e+00, 1e+00]
  Bounds range     [1e+00, 2e+01]
  RHS range        [1e+00, 2e+01]
Presolve removed 79 rows and 642 columns
Presolve time: 0.11s
Presolved: 603 rows, 1135 columns, 9614 nonzeros
Variable types: 0 continuous, 1135 integer (1124 binary)

Root relaxation: objective 5.000000e+01, 620 iterations, 0.02 seconds (0.01 work units)

    Nodes    |    Current Node    |     Objective Bounds      |     Work
 Expl Unexpl |  Obj  Depth IntInf | Incumbent    BestBd   Gap | It/Node Time

     0     0   50.00000    0   37          -   50.00000      -     -    0s
     0     0   50.00000    0  238          -   50.00000      -     -    0s
     0     0   50.00000    0  236          -   50.00000      -     -    0s
     0     0   50.00000    0   73          -   50.00000      -     -    0s
     0     0   50.00000    0  159          -   50.00000      -     -    0s
     0     0   50.00000    0   51          -   50.00000      -     -    0s
     0     0   50.00000    0   51          -   50.00000      -     -    0s
     0     2   50.00000    0   46          -   50.00000      -     -    0s
  1118   330 infeasible   23               -   50.00000      -  96.3    5s
  1370   349 infeasible   31               -   50.00000      -  33.8   10s
  2368   126   50.00000   24  150          -   50.00000      -  49.1   15s
* 2416   146              40      41.0000000   50.00000  22.0%  50.2   15s
H 3039   158                      43.0000000   50.00000  16.3%  54.5   18s
H 3164   159                      44.0000000   50.00000  13.6%  56.3   19s
  3294   175   49.89059   32  115   44.00000   50.00000  13.6%  57.7   20s
  3734   208   50.00000   24  130   44.00000   50.00000  13.6%  61.4   25s
  4035   196   50.00000   23  144   44.00000   50.00000  13.6%  64.9   30s
  4286   195   50.00000   20   89   44.00000   50.00000  13.6%  66.9   35s
  4782   227 infeasible   24        44.00000   50.00000  13.6%  70.4   40s
  6081   239 infeasible   34        44.00000   50.00000  13.6%  68.9   45s
  7325   287 infeasible   31        44.00000   50.00000  13.6%  69.2   50s
  8104   280   50.00000   30   96   44.00000   50.00000  13.6%  71.4   55s
  8670   282 infeasible   22        44.00000   50.00000  13.6%  72.2   60s
 10098   333 infeasible   30        44.00000   50.00000  13.6%  72.0   65s
 10814   315   50.00000   25  168   44.00000   50.00000  13.6%  73.1   76s
 11353   322 infeasible   31        44.00000   50.00000  13.6%  73.5   80s
 12452   336   50.00000   25  132   44.00000   50.00000  13.6%  73.8   85s
 13657   424   50.00000   39  122   44.00000   50.00000  13.6%  73.1   90s
 14956   406 infeasible   31        44.00000   50.00000  13.6%  72.5   95s
 15641   422   50.00000   27  136   44.00000   50.00000  13.6%  72.7  100s
 16261   407 infeasible   30        44.00000   50.00000  13.6%  72.9  105s
 17528   459   50.00000   30  108   44.00000   50.00000  13.6%  72.7  110s
 18759   450   50.00000   28  147   44.00000   50.00000  13.6%  72.6  115s
 19597   483   50.00000   33   82   44.00000   50.00000  13.6%  73.1  120s
 20616   473 infeasible   25        44.00000   50.00000  13.6%  73.3  125s
 21347   486 infeasible   35        44.00000   50.00000  13.6%  74.2  130s
 22079   474   50.00000   40   89   44.00000   50.00000  13.6%  74.8  135s
 23135   489   50.00000   25   92   44.00000   50.00000  13.6%  74.7  140s
 23899   492   50.00000   36  167   44.00000   50.00000  13.6%  75.0  145s
 24581   507   50.00000   27   74   44.00000   50.00000  13.6%  75.2  150s
 25755   531   49.50000   28  133   44.00000   50.00000  13.6%  75.4  155s
 26454   521   50.00000   27   99   44.00000   50.00000  13.6%  75.7  160s
 27461   519 infeasible   32        44.00000   50.00000  13.6%  76.0  165s
 28145   533   48.99075   27  173   44.00000   50.00000  13.6%  76.5  170s
 28960   501   46.14623   35  103   44.00000   50.00000  13.6%  77.0  175s

Cutting planes:
  Cover: 41
  Clique: 49
  MIR: 3
  StrongCG: 1
  Flow cover: 18
  GUB cover: 5
  Zero half: 1
  RLT: 3
  BQP: 1

Explored 30427 nodes (2428921 simplex iterations) in 178.90 seconds (169.59 work units)
Thread count was 1 (of 8 available processors)

Solution count 3: 44 43 41 

Optimal solution found (tolerance 1.00e-03)
Best objective 4.400000000000e+01, best bound 4.400000000000e+01, gap 0.0000%
